HUN,8,6,631
1,21,0,4,4,28,3,11,5,18,2,11
3,17,1,30,2,26,0,19,5,13,4,1
2,20,1,3,3,18,5,5,4,10,0,24
4,4,2,29,5,28,3,28,1,26,0,8
2,12,1,10,4,23,5,21,3,26,0,22
2,24,4,3,1,27,3,4,0,16,5,21
2,26,4,3,5,20,1,13,3,1,0,15
0,26,5,29,2,13,4,25,3,30,1,13
